Maximize
  0.00570013082884723 Z_449_0_0 + 0.0101351344414708 Z_449_0_1
   + 0.4006300793579926 Z_449_0_2 + 0.01312235036132 Z_449_0_3
   + 0.0310600693899752 Z_649_0_0 + 0.0479580175659762 Z_649_0_1
   + 0.00428069544199126 Z_649_0_2 + 0.1723857491400588 Z_649_0_3
   + 0.0235197748110104 Z_408_0_0 + 0.2681659132678223 Z_408_0_1
   + 0.0133743426322528 Z_408_0_2 + 0.0813578325234392 Z_408_0_3
   + 0.0172118105085408 Z_615_1_0 + 0.0262666684810315 Z_615_1_1
   + 0.0202171011280718 Z_615_1_2 + 0.0221157124355295 Z_615_1_3
   + 0.0130738703630481 Z_615_2_0 + 0.0227173348449526 Z_615_2_1
   + 0.00382110139664843 Z_615_2_2 + 0.0209370996762161 Z_615_2_3
   + 0.00636755384109183 Z_615_4_0 + 0.0209608469634056 Z_615_4_1
   + 0.1029649628710483 Z_615_4_2 + 0.0127799492503038 Z_615_4_3
   + 0.00636755384109183 Z_615_5_0 + 0.0209608469634056 Z_615_5_1
   + 0.1029649628710483 Z_615_5_2 + 0.0127799492503038 Z_615_5_3
   + 0.0156988130280524 Z_615_3_0 + 0.0235761314215203 Z_615_3_1
   + 0.0024138181275803 Z_615_3_2 + 0.0785553840055633 Z_615_3_3
   + 0.0156988130280524 Z_615_0_0 + 0.0235761314215203 Z_615_0_1
   + 0.0024138181275803 Z_615_0_2 + 0.0785553840055633 Z_615_0_3
   + 0.1144656172923357 Z_235_0_0 + 0.4368010853553531 Z_235_0_1
   + 0.0142747172017463 Z_235_0_2 + 0.0724503313762172 Z_235_0_3
   + 0.0045457130281738 Z_430_0_0 + 0.010829231337459 Z_430_0_1
   + 0.4156385769243512 Z_430_0_2 + 0.01591679700214 Z_430_0_3
   + 0.0109443061798417 Z_282_0_0 + 0.441144527308425 Z_282_0_1
   + 0.00420629753920475 Z_282_0_2 + 0.0370438988254998 Z_282_0_3 + [
   0.129351777572454 Z_649_0_0 * Z_408_0_0
   + 0.00235319876058679 Z_649_0_0 * Z_615_1_0
   + 0.0906063454716199 Z_649_0_0 * Z_615_3_0
   + 0.0906063454716199 Z_649_0_0 * Z_615_0_0
   + 0.160832542494469 Z_649_0_0 * Z_235_0_0
   + 2.7594471880069998e-04 Z_649_0_0 * Z_430_0_0
   + 0.0447312616535391 Z_649_0_0 * Z_282_0_0
   + 0.129351777572454 Z_649_0_1 * Z_408_0_1
   + 0.00235319876058679 Z_649_0_1 * Z_615_1_1
   + 0.0906063454716199 Z_649_0_1 * Z_615_3_1
   + 0.0906063454716199 Z_649_0_1 * Z_615_0_1
   + 0.160832542494469 Z_649_0_1 * Z_235_0_1
   + 2.7594471880069998e-04 Z_649_0_1 * Z_430_0_1
   + 0.0447312616535391 Z_649_0_1 * Z_282_0_1
   + 0.129351777572454 Z_649_0_2 * Z_408_0_2
   + 0.00235319876058679 Z_649_0_2 * Z_615_1_2
   + 0.0906063454716199 Z_649_0_2 * Z_615_3_2
   + 0.0906063454716199 Z_649_0_2 * Z_615_0_2
   + 0.160832542494469 Z_649_0_2 * Z_235_0_2
   + 2.7594471880069998e-04 Z_649_0_2 * Z_430_0_2
   + 0.0447312616535391 Z_649_0_2 * Z_282_0_2
   + 0.129351777572454 Z_649_0_3 * Z_408_0_3
   + 0.00235319876058679 Z_649_0_3 * Z_615_1_3
   + 0.0906063454716199 Z_649_0_3 * Z_615_3_3
   + 0.0906063454716199 Z_649_0_3 * Z_615_0_3
   + 0.160832542494469 Z_649_0_3 * Z_235_0_3
   + 2.7594471880069998e-04 Z_649_0_3 * Z_430_0_3
   + 0.0447312616535391 Z_649_0_3 * Z_282_0_3
   + 8.97626e-05 Z_408_0_0 * Z_615_5_0
   + 0.129351777572454 Z_408_0_0 * Z_615_3_0
   + 0.129351777572454 Z_408_0_0 * Z_615_0_0
   + 0.129351777572454 Z_408_0_0 * Z_235_0_0
   + 8.97626e-05 Z_408_0_1 * Z_615_5_1
   + 0.129351777572454 Z_408_0_1 * Z_615_3_1
   + 0.129351777572454 Z_408_0_1 * Z_615_0_1
   + 0.129351777572454 Z_408_0_1 * Z_235_0_1
   + 8.97626e-05 Z_408_0_2 * Z_615_5_2
   + 0.129351777572454 Z_408_0_2 * Z_615_3_2
   + 0.129351777572454 Z_408_0_2 * Z_615_0_2
   + 0.129351777572454 Z_408_0_2 * Z_235_0_2
   + 8.97626e-05 Z_408_0_3 * Z_615_5_3
   + 0.129351777572454 Z_408_0_3 * Z_615_3_3
   + 0.129351777572454 Z_408_0_3 * Z_615_0_3
   + 0.129351777572454 Z_408_0_3 * Z_235_0_3
   + 2.8956946650847583e-04 Z_615_1_0 * Z_430_0_0
   + 2.8956946650847583e-04 Z_615_1_1 * Z_430_0_1
   + 2.8956946650847583e-04 Z_615_1_2 * Z_430_0_2
   + 2.8956946650847583e-04 Z_615_1_3 * Z_430_0_3
   + 0.00251350854443877 Z_615_5_0 * Z_282_0_0
   + 0.00251350854443877 Z_615_5_1 * Z_282_0_1
   + 0.00251350854443877 Z_615_5_2 * Z_282_0_2
   + 0.00251350854443877 Z_615_5_3 * Z_282_0_3
   + 0.160832542494469 Z_615_3_0 * Z_235_0_0
   + 0.0447312616535391 Z_615_3_0 * Z_282_0_0
   + 0.160832542494469 Z_615_3_1 * Z_235_0_1
   + 0.0447312616535391 Z_615_3_1 * Z_282_0_1
   + 0.160832542494469 Z_615_3_2 * Z_235_0_2
   + 0.0447312616535391 Z_615_3_2 * Z_282_0_2
   + 0.160832542494469 Z_615_3_3 * Z_235_0_3
   + 0.0447312616535391 Z_615_3_3 * Z_282_0_3
   + 0.160832542494469 Z_615_0_0 * Z_235_0_0
   + 0.0447312616535391 Z_615_0_0 * Z_282_0_0
   + 0.160832542494469 Z_615_0_1 * Z_235_0_1
   + 0.0447312616535391 Z_615_0_1 * Z_282_0_1
   + 0.160832542494469 Z_615_0_2 * Z_235_0_2
   + 0.0447312616535391 Z_615_0_2 * Z_282_0_2
   + 0.160832542494469 Z_615_0_3 * Z_235_0_3
   + 0.0447312616535391 Z_615_0_3 * Z_282_0_3
   + 0.0665628075772723 Z_235_0_0 * Z_282_0_0
   + 0.0665628075772723 Z_235_0_1 * Z_282_0_1
   + 0.0665628075772723 Z_235_0_2 * Z_282_0_2
   + 0.0665628075772723 Z_235_0_3 * Z_282_0_3 ] / 2 
Subject To
 constraint1_4490: Z_449_0_0 + Z_449_0_1 + Z_449_0_2 + Z_449_0_3 <= 1
 constraint1_6490: Z_649_0_0 + Z_649_0_1 + Z_649_0_2 + Z_649_0_3 <= 1
 constraint1_4080: Z_408_0_0 + Z_408_0_1 + Z_408_0_2 + Z_408_0_3 <= 1
 constraint1_6151: Z_615_1_0 + Z_615_1_1 + Z_615_1_2 + Z_615_1_3 <= 1
 constraint1_6152: Z_615_2_0 + Z_615_2_1 + Z_615_2_2 + Z_615_2_3 <= 1
 constraint1_6154: Z_615_4_0 + Z_615_4_1 + Z_615_4_2 + Z_615_4_3 <= 1
 constraint1_6155: Z_615_5_0 + Z_615_5_1 + Z_615_5_2 + Z_615_5_3 <= 1
 constraint1_6153: Z_615_3_0 + Z_615_3_1 + Z_615_3_2 + Z_615_3_3 <= 1
 constraint1_6150: Z_615_0_0 + Z_615_0_1 + Z_615_0_2 + Z_615_0_3 <= 1
 constraint1_2350: Z_235_0_0 + Z_235_0_1 + Z_235_0_2 + Z_235_0_3 <= 1
 constraint1_4300: Z_430_0_0 + Z_430_0_1 + Z_430_0_2 + Z_430_0_3 <= 1
 constraint1_2820: Z_282_0_0 + Z_282_0_1 + Z_282_0_2 + Z_282_0_3 <= 1
 constraint2_4490: Z_449_0_0 <= 1
 constraint2_4491: Z_449_0_1 <= 1
 constraint2_4492: Z_449_0_2 <= 1
 constraint2_4493: Z_449_0_3 <= 1
 constraint2_6490: Z_649_0_0 <= 1
 constraint2_6491: Z_649_0_1 <= 1
 constraint2_6492: Z_649_0_2 <= 1
 constraint2_6493: Z_649_0_3 <= 1
 constraint2_4080: Z_408_0_0 <= 1
 constraint2_4081: Z_408_0_1 <= 1
 constraint2_4082: Z_408_0_2 <= 1
 constraint2_4083: Z_408_0_3 <= 1
 constraint2_6150: Z_615_1_0 + Z_615_2_0 + Z_615_4_0 + Z_615_5_0
   + Z_615_3_0 + Z_615_0_0 <= 1
 constraint2_6151: Z_615_1_1 + Z_615_2_1 + Z_615_4_1 + Z_615_5_1
   + Z_615_3_1 + Z_615_0_1 <= 1
 constraint2_6152: Z_615_1_2 + Z_615_2_2 + Z_615_4_2 + Z_615_5_2
   + Z_615_3_2 + Z_615_0_2 <= 1
 constraint2_6153: Z_615_1_3 + Z_615_2_3 + Z_615_4_3 + Z_615_5_3
   + Z_615_3_3 + Z_615_0_3 <= 1
 constraint2_2350: Z_235_0_0 <= 1
 constraint2_2351: Z_235_0_1 <= 1
 constraint2_2352: Z_235_0_2 <= 1
 constraint2_2353: Z_235_0_3 <= 1
 constraint2_4300: Z_430_0_0 <= 1
 constraint2_4301: Z_430_0_1 <= 1
 constraint2_4302: Z_430_0_2 <= 1
 constraint2_4303: Z_430_0_3 <= 1
 constraint2_2820: Z_282_0_0 <= 1
 constraint2_2821: Z_282_0_1 <= 1
 constraint2_2822: Z_282_0_2 <= 1
 constraint2_2823: Z_282_0_3 <= 1
Bounds
Binaries
 Z_449_0_0 Z_449_0_1 Z_449_0_2 Z_449_0_3 Z_649_0_0 Z_649_0_1 Z_649_0_2
 Z_649_0_3 Z_408_0_0 Z_408_0_1 Z_408_0_2 Z_408_0_3 Z_615_1_0 Z_615_1_1
 Z_615_1_2 Z_615_1_3 Z_615_2_0 Z_615_2_1 Z_615_2_2 Z_615_2_3 Z_615_4_0
 Z_615_4_1 Z_615_4_2 Z_615_4_3 Z_615_5_0 Z_615_5_1 Z_615_5_2 Z_615_5_3
 Z_615_3_0 Z_615_3_1 Z_615_3_2 Z_615_3_3 Z_615_0_0 Z_615_0_1 Z_615_0_2
 Z_615_0_3 Z_235_0_0 Z_235_0_1 Z_235_0_2 Z_235_0_3 Z_430_0_0 Z_430_0_1
 Z_430_0_2 Z_430_0_3 Z_282_0_0 Z_282_0_1 Z_282_0_2 Z_282_0_3
End
